25935
0 1 0 0 1 0 1 0 1 0 0 0 0 0 0 1 0 0 1 1 0 0 0 1 0 1 0 1 1 1 
18 19 15 27 15 6 15 28 18 28 4 28 1 1 19 18 1 8 27 28 18 27 1 27 23 18 27 19 29 15 19 4 4 15 27 6 8 8 27 15 18 8 6 4 8 4 8 15 19 19 27 27 27 15 8 6 18 8 18 25 29 28 18 8 8 25 23 19 19 25 18 6 19 8 23 23 8 23 8 27 23 23 4 25 29 8 19 1 27 25 28 6 25 25 23 1 27 6 23 28 19 15 25 18 4 28 4 27 18 1 19 29 18 6 6 8 28 25 19 8 4 25 28 19 4 15 15 25 4 19 28 27 25 8 1 8 1 1 28 23 6 27 19 25 25 23 27 15 27 25 27 19 23 28 8 25 15 15 8 1 1 27 23 27 23 27 1 29 1 15 1 8 19 8 4 1 27 8 29 8 15 15 15 19 6 8 28 23 27 15 15 15 6 4 25 6 18 15 8 19 
